
Gurobi 13.0.1 (linux64) logging started Sat Mar 21 10:37:46 2026

Set parameter LogFile to value "logs/50B_3F_deterministic_2026-03-21_10h37m39s.log"
Gurobi Optimizer version 13.0.1 build v13.0.1rc0 (linux64 - "Linux Mint 22")

CPU model: 12th Gen Intel(R) Core(TM) i7-12700, instruction set [SSE2|AVX|AVX2]
Thread count: 20 physical cores, 20 logical processors, using up to 20 threads

Non-default parameters:
TimeLimit  3600
SoftMemLimit  12

Optimize a model with 29970 rows, 390060 columns and 1191423 nonzeros (Max)
Model fingerprint: 0x751b1f78
Model has 371160 linear objective coefficients
Variable types: 7560 continuous, 382500 integer (382500 binary)
Coefficient statistics:
  Matrix range     [3e-05, 1e+05]
  Objective range  [3e+01, 3e+03]
  Bounds range     [1e+00, 1e+05]
  RHS range        [8e-03, 1e+05]

Found heuristic solution: objective -3.49665e+08
Presolve removed 15398 rows and 281936 columns
Presolve time: 0.64s
Presolved: 14572 rows, 108124 columns, 341527 nonzeros
Variable types: 3670 continuous, 104454 integer (104454 binary)
Deterministic concurrent LP optimizer: primal and dual simplex
Showing primal log only...

Concurrent spin time: 0.54s (can be avoided by choosing Method=3)

Solved with dual simplex

Root relaxation: objective 1.381460e+08, 11381 iterations, 2.36 seconds (3.91 work units)

    Nodes    |    Current Node    |     Objective Bounds      |     Work
 Expl Unexpl |  Obj  Depth IntInf | Incumbent    BestBd   Gap | It/Node Time

     0     0 1.3815e+08    0 2690 -3.497e+08 1.3815e+08   140%     -    3s
H    0     0                    -2.05509e+08 1.3815e+08   167%     -    3s
H    0     0                    -1.10308e+08 1.3815e+08   225%     -    3s
H    0     0                    -1.10307e+08 1.3815e+08   225%     -    4s
H    0     0                    -4.75510e+07 1.3815e+08   391%     -    5s
H    0     0                    -4.16093e+07 1.3815e+08   432%     -    5s
H    0     0                    -3.50735e+07 1.3815e+08   494%     -    5s
H    0     0                    -3.38602e+07 1.3815e+08   508%     -    5s
H    0     0                    -3.38546e+07 1.3815e+08   508%     -    6s
H    0     0                    -3.38528e+07 1.3815e+08   508%     -    6s
H    0     0                    -3.38527e+07 1.3815e+08   508%     -    6s
H    0     0                    -3.38524e+07 1.3815e+08   508%     -    6s
H    0     0                    -3.38523e+07 1.3815e+08   508%     -    6s
H    0     0                    -3.38511e+07 1.3815e+08   508%     -    6s
H    0     0                    -3.38510e+07 1.3815e+08   508%     -    7s
H    0     0                    -3.38499e+07 1.3815e+08   508%     -    7s
H    0     0                    -3.38471e+07 1.3815e+08   508%     -    8s
H    0     0                    -3.38460e+07 1.3815e+08   508%     -    8s
H    0     0                    -1.74918e+07 1.3815e+08   890%     -    9s
H    0     0                    8.316232e+07 1.3815e+08  66.1%     -    9s
H    0     0                    8.510946e+07 1.3815e+08  62.3%     -    9s
H    0     0                    8.562675e+07 1.3815e+08  61.3%     -   10s
H    0     0                    1.171553e+08 1.3815e+08  17.9%     -   11s
H    0     0                    1.280956e+08 1.3815e+08  7.85%     -   11s
H    0     0                    1.280956e+08 1.3815e+08  7.85%     -   11s
H    0     0                    1.280978e+08 1.3815e+08  7.84%     -   11s
H    0     0                    1.280986e+08 1.3815e+08  7.84%     -   11s
H    0     0                    1.281005e+08 1.3815e+08  7.84%     -   12s
H    0     0                    1.281046e+08 1.3815e+08  7.84%     -   12s
H    0     0                    1.281122e+08 1.3815e+08  7.83%     -   12s
H    0     0                    1.281169e+08 1.3814e+08  7.83%     -   17s
     0     0 1.3814e+08    0 2600 1.2812e+08 1.3814e+08  7.83%     -   18s
H    0     0                    1.380993e+08 1.3814e+08  0.03%     -   20s
     0     0 1.3814e+08    0 2740 1.3810e+08 1.3814e+08  0.03%     -   22s
     0     0 1.3814e+08    0 3108 1.3810e+08 1.3814e+08  0.03%     -   25s
     0     0 1.3814e+08    0 3108 1.3810e+08 1.3814e+08  0.03%     -   26s
     0     0 1.3814e+08    0 2928 1.3810e+08 1.3814e+08  0.03%     -   26s
H    0     0                    1.381113e+08 1.3814e+08  0.02%     -   34s
H    0     0                    1.381116e+08 1.3814e+08  0.02%     -   35s
H    0     0                    1.381124e+08 1.3814e+08  0.02%     -   38s
H    0     0                    1.381132e+08 1.3814e+08  0.02%     -   38s
     0     2 1.3814e+08    0 2863 1.3811e+08 1.3814e+08  0.02%     -   56s
     7    16 1.3814e+08    3 3218 1.3811e+08 1.3814e+08  0.02%   776   61s
    15    32 1.3814e+08    4 3453 1.3811e+08 1.3814e+08  0.02%   883   67s
    31    52 1.3814e+08    5 3254 1.3811e+08 1.3814e+08  0.02%  1235   75s
    51    72 1.3814e+08    6 3340 1.3811e+08 1.3814e+08  0.02%  1014   89s
H   67    72                    1.381160e+08 1.3814e+08  0.02%   855   89s
    71   214 1.3814e+08    7 3389 1.3812e+08 1.3814e+08  0.02%   835  121s
H  184   214                    1.381162e+08 1.3814e+08  0.02%   852  121s
   213   388 1.3814e+08   18 3182 1.3812e+08 1.3814e+08  0.02%   815  179s
   387   424 1.3814e+08   22 3060 1.3812e+08 1.3814e+08  0.02%  1036  257s
H  390   424                    1.381179e+08 1.3814e+08  0.02%  1028  257s
H  391   424                    1.381193e+08 1.3814e+08  0.02%  1026  257s
   423  1343 1.3814e+08   23 2305 1.3812e+08 1.3814e+08  0.02%  1024  436s
  1342  3062 1.3814e+08   63 2808 1.3812e+08 1.3814e+08  0.02%   739  716s
H 3071  3074                    1.381203e+08 1.3814e+08  0.02%   632  828s
H 3074  3051                    1.381222e+08 1.3814e+08  0.01%   632  828s
H 3085  3038                    1.381233e+08 1.3814e+08  0.01%   632  828s
  3091  4360 1.3814e+08  150 2516 1.3812e+08 1.3814e+08  0.01%   632 1049s
  4413  4718 1.3814e+08  202 1907 1.3812e+08 1.3814e+08  0.01%   619 1185s
H 4420  4718                    1.381234e+08 1.3814e+08  0.01%   619 1185s
H 4425  4718                    1.381234e+08 1.3814e+08  0.01%   619 1185s
  4792  5918 1.3814e+08  202 2006 1.3812e+08 1.3814e+08  0.01%   587 1393s
  6005  6999 1.3814e+08  238 1871 1.3812e+08 1.3814e+08  0.01%   592 1612s
  7086  8151 1.3814e+08  268 2155 1.3812e+08 1.3814e+08  0.01%   610 1817s
  8244  9465 1.3814e+08  299 2041 1.3812e+08 1.3814e+08  0.01%   616 2035s
  9558 10927 1.3814e+08  351 1753 1.3812e+08 1.3814e+08  0.01%   615 2249s
H 9953 10927                    1.381234e+08 1.3814e+08  0.01%   613 2249s
 11020 11327 1.3814e+08  395 1432 1.3812e+08 1.3814e+08  0.01%   607 2386s
H11023 11293                    1.381239e+08 1.3814e+08  0.01%   607 2386s
H11064 10927                    1.381265e+08 1.3814e+08  0.01%   608 2386s
H11420 10792                    1.381274e+08 1.3814e+08  0.01%   606 2386s
 11421 10793 1.3814e+08   78 2928 1.3813e+08 1.3814e+08  0.01%   606 2726s
 11423 10794 1.3813e+08  410 2952 1.3813e+08 1.3814e+08  0.01%   606 2733s
 11424 10795 1.3814e+08   37 2348 1.3813e+08 1.3814e+08  0.01%   606 2741s
 11425 10796 1.3814e+08   87 2702 1.3813e+08 1.3814e+08  0.01%   606 2745s

Cutting planes:
  Gomory: 12
  Cover: 13
  MIR: 24
  Flow cover: 2
  GUB cover: 1
  Zero half: 25
  RLT: 1956
  Relax-and-lift: 2

Explored 11425 nodes (6966636 simplex iterations) in 2749.60 seconds (2340.04 work units)
Thread count was 20 (of 20 available processors)

Solution count 10: 1.38127e+08 1.38127e+08 1.38124e+08 ... 1.38119e+08

Optimal solution found (tolerance 1.00e-04)
Best objective 1.381274324676e+08, best bound 1.381410721482e+08, gap 0.0099%
